; benchmark generated from python API
(set-info :status unknown)
(declare-fun x_epoch () Int)
(declare-fun y_epoch () Int)
(declare-fun x_shift_period_25789_epoch () Int)
(declare-fun x_year () Int)
(declare-fun x_month () Int)
(declare-fun x_day () Int)
(declare-fun x_shift_period_25789_year () Int)
(declare-fun x_shift_period_25789_month () Int)
(declare-fun x_shift_period_25789_day () Int)
(assert
 (>= x_epoch (- 36584)))
(assert
 (<= x_epoch 36829))
(assert
 (>= y_epoch (- 36584)))
(assert
 (<= y_epoch 36829))
(assert
 (= x_epoch 7990))
(assert
 (>= x_shift_period_25789_epoch (- 36584)))
(assert
 (<= x_shift_period_25789_epoch 36829))
(assert
 (let (($x2293 (<= x_year 2100)))
 (let (($x1504 (>= x_year 1900)))
 (let (($x684 (= x_month 11)))
 (let (($x1263 (= x_month 9)))
 (let (($x791 (= x_month 6)))
 (let (($x721 (= x_month 4)))
 (let ((?x2607 (ite (or $x721 $x791 $x1263 $x684) 30 31)))
 (let (($x257 (= (mod x_year 4) 0)))
 (let (($x1207 (= (mod x_year 100) 0)))
 (let (($x2715 (= (mod x_year 400) 0)))
 (let (($x656 (ite $x2715 true (ite $x1207 false $x257))))
 (let (($x2319 (= x_month 2)))
 (let ((?x235 (ite $x2319 (ite $x656 29 28) ?x2607)))
 (let (($x2786 (>= x_day 1)))
 (let (($x111 (<= x_month 12)))
 (let (($x2376 (>= x_month 1)))
 (and $x2376 $x111 $x2786 (<= x_day ?x235) $x1504 $x2293))))))))))))))))))
(assert
 (let (($x29 (or (and (= (mod 2000 4) 0) (and (distinct (mod 2000 100) 0) true)) (= (mod 2000 400) 0))))
 (let ((?x36 (ite (= 3 2) (ite $x29 31 31) (ite (= 3 1) (ite $x29 0 0) 0))))
 (let ((?x40 (ite $x29 60 59)))
 (let ((?x41 (ite (= 3 3) ?x40 ?x36)))
 (let ((?x46 (ite (= 3 4) (ite $x29 91 90) ?x41)))
 (let ((?x52 (ite (= 3 5) (ite $x29 121 120) ?x46)))
 (let ((?x58 (ite (= 3 6) (ite $x29 152 151) ?x52)))
 (let ((?x64 (ite (= 3 7) (ite $x29 182 181) ?x58)))
 (let ((?x70 (ite (= 3 8) (ite $x29 213 212) ?x64)))
 (let ((?x76 (ite (= 3 9) (ite $x29 244 243) ?x70)))
 (let ((?x82 (ite (= 3 10) (ite $x29 274 273) ?x76)))
 (let ((?x88 (ite (= 3 11) (ite $x29 305 304) ?x82)))
 (let ((?x16 (- (+ (* 365 (- 2000 1)) (div (- 2000 1) 4)) (div (- 2000 1) 100))))
 (let ((?x95 (+ (+ ?x16 (div (- 2000 1) 400)) (ite (= 3 12) (ite $x29 335 334) ?x88))))
 (let ((?x97 (+ ?x95 (- 1 1))))
 (let (($x257 (= (mod x_year 4) 0)))
 (let (($x1207 (= (mod x_year 100) 0)))
 (let (($x2715 (= (mod x_year 400) 0)))
 (let (($x656 (ite $x2715 true (ite $x1207 false $x257))))
 (let (($x2043 (= 2 x_month)))
 (let ((?x2800 (ite $x2043 (ite $x656 31 31) (ite (= 1 x_month) (ite $x656 0 0) 0))))
 (let (($x914 (= 3 x_month)))
 (let (($x1891 (= 4 x_month)))
 (let ((?x189 (ite $x1891 (ite $x656 91 90) (ite $x914 (ite $x656 60 59) ?x2800))))
 (let (($x2398 (= 5 x_month)))
 (let (($x3221 (= 6 x_month)))
 (let ((?x2274 (ite $x3221 (ite $x656 152 151) (ite $x2398 (ite $x656 121 120) ?x189))))
 (let (($x1117 (= 7 x_month)))
 (let (($x1752 (= 8 x_month)))
 (let ((?x2826 (ite $x1752 (ite $x656 213 212) (ite $x1117 (ite $x656 182 181) ?x2274))))
 (let (($x1153 (= 9 x_month)))
 (let (($x303 (= 10 x_month)))
 (let ((?x2978 (ite $x303 (ite $x656 274 273) (ite $x1153 (ite $x656 244 243) ?x2826))))
 (let (($x2818 (= 11 x_month)))
 (let (($x140 (= 12 x_month)))
 (let ((?x620 (ite $x140 (ite $x656 335 334) (ite $x2818 (ite $x656 305 304) ?x2978))))
 (let ((?x778 (- (+ (* 365 (- x_year 1)) (div (- x_year 1) 4)) (div (- x_year 1) 100))))
 (let ((?x858 (+ (+ (+ ?x778 (div (- x_year 1) 400)) ?x620) (- x_day 1))))
 (= x_epoch (- ?x858 ?x97)))))))))))))))))))))))))))))))))))))))))
(assert
 (let (($x213 (<= x_shift_period_25789_year 2100)))
 (let (($x3455 (>= x_shift_period_25789_year 1900)))
 (let (($x3476 (= x_shift_period_25789_month 11)))
 (let (($x3477 (= x_shift_period_25789_month 9)))
 (let (($x1603 (= x_shift_period_25789_month 6)))
 (let (($x2210 (= x_shift_period_25789_month 4)))
 (let ((?x1385 (ite (or $x2210 $x1603 $x3477 $x3476) 30 31)))
 (let (($x1407 (= (mod x_shift_period_25789_year 4) 0)))
 (let (($x3152 (= (mod x_shift_period_25789_year 100) 0)))
 (let (($x3561 (= (mod x_shift_period_25789_year 400) 0)))
 (let (($x3452 (ite $x3561 true (ite $x3152 false $x1407))))
 (let (($x2572 (= x_shift_period_25789_month 2)))
 (let (($x1409 (>= x_shift_period_25789_day 1)))
 (let (($x3440 (<= x_shift_period_25789_month 12)))
 (let (($x2055 (>= x_shift_period_25789_month 1)))
 (and $x2055 $x3440 $x1409 (<= x_shift_period_25789_day (ite $x2572 (ite $x3452 29 28) ?x1385)) $x3455 $x213)))))))))))))))))
(assert
 (let (($x29 (or (and (= (mod 2000 4) 0) (and (distinct (mod 2000 100) 0) true)) (= (mod 2000 400) 0))))
 (let ((?x36 (ite (= 3 2) (ite $x29 31 31) (ite (= 3 1) (ite $x29 0 0) 0))))
 (let ((?x40 (ite $x29 60 59)))
 (let ((?x41 (ite (= 3 3) ?x40 ?x36)))
 (let ((?x46 (ite (= 3 4) (ite $x29 91 90) ?x41)))
 (let ((?x52 (ite (= 3 5) (ite $x29 121 120) ?x46)))
 (let ((?x58 (ite (= 3 6) (ite $x29 152 151) ?x52)))
 (let ((?x64 (ite (= 3 7) (ite $x29 182 181) ?x58)))
 (let ((?x70 (ite (= 3 8) (ite $x29 213 212) ?x64)))
 (let ((?x76 (ite (= 3 9) (ite $x29 244 243) ?x70)))
 (let ((?x82 (ite (= 3 10) (ite $x29 274 273) ?x76)))
 (let ((?x88 (ite (= 3 11) (ite $x29 305 304) ?x82)))
 (let ((?x16 (- (+ (* 365 (- 2000 1)) (div (- 2000 1) 4)) (div (- 2000 1) 100))))
 (let ((?x95 (+ (+ ?x16 (div (- 2000 1) 400)) (ite (= 3 12) (ite $x29 335 334) ?x88))))
 (let ((?x97 (+ ?x95 (- 1 1))))
 (let (($x1407 (= (mod x_shift_period_25789_year 4) 0)))
 (let (($x3152 (= (mod x_shift_period_25789_year 100) 0)))
 (let (($x3561 (= (mod x_shift_period_25789_year 400) 0)))
 (let (($x3452 (ite $x3561 true (ite $x3152 false $x1407))))
 (let ((?x3460 (ite (= 2 x_shift_period_25789_month) (ite $x3452 31 31) (ite (= 1 x_shift_period_25789_month) (ite $x3452 0 0) 0))))
 (let ((?x3225 (ite (= 4 x_shift_period_25789_month) (ite $x3452 91 90) (ite (= 3 x_shift_period_25789_month) (ite $x3452 60 59) ?x3460))))
 (let ((?x3436 (ite (= 6 x_shift_period_25789_month) (ite $x3452 152 151) (ite (= 5 x_shift_period_25789_month) (ite $x3452 121 120) ?x3225))))
 (let ((?x3425 (ite (= 8 x_shift_period_25789_month) (ite $x3452 213 212) (ite (= 7 x_shift_period_25789_month) (ite $x3452 182 181) ?x3436))))
 (let ((?x1025 (ite (= 10 x_shift_period_25789_month) (ite $x3452 274 273) (ite (= 9 x_shift_period_25789_month) (ite $x3452 244 243) ?x3425))))
 (let ((?x3416 (ite (= 12 x_shift_period_25789_month) (ite $x3452 335 334) (ite (= 11 x_shift_period_25789_month) (ite $x3452 305 304) ?x1025))))
 (let ((?x3479 (+ (* 365 (- x_shift_period_25789_year 1)) (div (- x_shift_period_25789_year 1) 4))))
 (let ((?x3563 (+ (- ?x3479 (div (- x_shift_period_25789_year 1) 100)) (div (- x_shift_period_25789_year 1) 400))))
 (= x_shift_period_25789_epoch (- (+ (+ ?x3563 ?x3416) (- x_shift_period_25789_day 1)) ?x97))))))))))))))))))))))))))))))
(assert
 (let (($x29 (or (and (= (mod 2000 4) 0) (and (distinct (mod 2000 100) 0) true)) (= (mod 2000 400) 0))))
 (let ((?x36 (ite (= 3 2) (ite $x29 31 31) (ite (= 3 1) (ite $x29 0 0) 0))))
 (let ((?x40 (ite $x29 60 59)))
 (let ((?x41 (ite (= 3 3) ?x40 ?x36)))
 (let ((?x46 (ite (= 3 4) (ite $x29 91 90) ?x41)))
 (let ((?x52 (ite (= 3 5) (ite $x29 121 120) ?x46)))
 (let ((?x58 (ite (= 3 6) (ite $x29 152 151) ?x52)))
 (let ((?x64 (ite (= 3 7) (ite $x29 182 181) ?x58)))
 (let ((?x70 (ite (= 3 8) (ite $x29 213 212) ?x64)))
 (let ((?x76 (ite (= 3 9) (ite $x29 244 243) ?x70)))
 (let ((?x82 (ite (= 3 10) (ite $x29 274 273) ?x76)))
 (let ((?x88 (ite (= 3 11) (ite $x29 305 304) ?x82)))
 (let ((?x16 (- (+ (* 365 (- 2000 1)) (div (- 2000 1) 4)) (div (- 2000 1) 100))))
 (let ((?x95 (+ (+ ?x16 (div (- 2000 1) 400)) (ite (= 3 12) (ite $x29 335 334) ?x88))))
 (let ((?x97 (+ ?x95 (- 1 1))))
 (let ((?x1803 (+ (mod (+ (+ (* 12 x_year) (- x_month 1)) 13) 12) 1)))
 (let ((?x2171 (ite (or (= ?x1803 4) (= ?x1803 6) (= ?x1803 9) (= ?x1803 11)) 30 31)))
 (let ((?x2339 (* 12 x_year)))
 (let ((?x222 (+ ?x2339 (- x_month 1))))
 (let ((?x3075 (+ ?x222 13)))
 (let ((?x1950 (div ?x3075 12)))
 (let (($x1990 (ite (= (mod ?x1950 400) 0) true (ite (= (mod ?x1950 100) 0) false (= (mod ?x1950 4) 0)))))
 (let ((?x1023 (ite (= ?x1803 2) (ite $x1990 29 28) ?x2171)))
 (let ((?x2005 (ite (<= x_day ?x1023) x_day ?x1023)))
 (let (($x684 (= x_month 11)))
 (let (($x1263 (= x_month 9)))
 (let (($x791 (= x_month 6)))
 (let (($x721 (= x_month 4)))
 (let ((?x2607 (ite (or $x721 $x791 $x1263 $x684) 30 31)))
 (let (($x257 (= (mod x_year 4) 0)))
 (let (($x1207 (= (mod x_year 100) 0)))
 (let (($x2715 (= (mod x_year 400) 0)))
 (let (($x656 (ite $x2715 true (ite $x1207 false $x257))))
 (let (($x2319 (= x_month 2)))
 (let ((?x235 (ite $x2319 (ite $x656 29 28) ?x2607)))
 (let (($x2597 (= x_day ?x235)))
 (let ((?x3348 (ite false (ite $x2597 ?x1023 ?x2005) ?x2005)))
 (let (($x3341 (and (= (mod (+ ?x1950 (* (div 40 146097) 400)) 4) 0) (and (distinct (mod (+ ?x1950 (* (div 40 146097) 400)) 100) 0) true))))
 (let (($x3343 (or $x3341 (= (mod (+ ?x1950 (* (div 40 146097) 400)) 400) 0))))
 (let ((?x1131 (ite (= 2 ?x1803) (ite $x3343 31 31) (ite (= 1 ?x1803) (ite $x3343 0 0) 0))))
 (let ((?x3316 (ite (= 4 ?x1803) (ite $x3343 91 90) (ite (= 3 ?x1803) (ite $x3343 60 59) ?x1131))))
 (let ((?x3323 (ite (= 6 ?x1803) (ite $x3343 152 151) (ite (= 5 ?x1803) (ite $x3343 121 120) ?x3316))))
 (let ((?x3299 (ite (= 8 ?x1803) (ite $x3343 213 212) (ite (= 7 ?x1803) (ite $x3343 182 181) ?x3323))))
 (let ((?x3305 (ite (= 10 ?x1803) (ite $x3343 274 273) (ite (= 9 ?x1803) (ite $x3343 244 243) ?x3299))))
 (let ((?x3290 (ite (= 12 ?x1803) (ite $x3343 335 334) (ite (= 11 ?x1803) (ite $x3343 305 304) ?x3305))))
 (let ((?x3355 (+ (* 365 (- (+ ?x1950 (* (div 40 146097) 400)) 1)) (div (- (+ ?x1950 (* (div 40 146097) 400)) 1) 4))))
 (let ((?x2569 (+ (- ?x3355 (div (- (+ ?x1950 (* (div 40 146097) 400)) 1) 100)) (div (- (+ ?x1950 (* (div 40 146097) 400)) 1) 400))))
 (let ((?x3277 (+ (+ (- (+ (+ ?x2569 ?x3290) (- ?x3348 1)) ?x97) (mod 40 146097)) ?x97)))
 (let ((?x3283 (mod ?x3277 146097)))
 (let ((?x3269 (div ?x3283 36524)))
 (let ((?x3268 (ite (<= 4 ?x3269) 3 ?x3269)))
 (let ((?x2521 (- ?x3283 (* ?x3268 36524))))
 (let ((?x675 (mod ?x2521 1461)))
 (let ((?x2662 (div ?x675 365)))
 (let ((?x3259 (ite (<= 4 ?x2662) 3 ?x2662)))
 (let ((?x3266 (+ (+ (* (div ?x3277 146097) 400) (* ?x3268 100)) (* (div ?x2521 1461) 4))))
 (let ((?x1754 (+ (+ ?x3266 ?x3259) 1)))
 (let (($x2090 (= 0 40)))
 (= x_shift_period_25789_year (ite $x2090 ?x1950 ?x1754)))))))))))))))))))))))))))))))))))))))))))))))))))))))))))))
(assert
 (let (($x29 (or (and (= (mod 2000 4) 0) (and (distinct (mod 2000 100) 0) true)) (= (mod 2000 400) 0))))
 (let ((?x36 (ite (= 3 2) (ite $x29 31 31) (ite (= 3 1) (ite $x29 0 0) 0))))
 (let ((?x40 (ite $x29 60 59)))
 (let ((?x41 (ite (= 3 3) ?x40 ?x36)))
 (let ((?x46 (ite (= 3 4) (ite $x29 91 90) ?x41)))
 (let ((?x52 (ite (= 3 5) (ite $x29 121 120) ?x46)))
 (let ((?x58 (ite (= 3 6) (ite $x29 152 151) ?x52)))
 (let ((?x64 (ite (= 3 7) (ite $x29 182 181) ?x58)))
 (let ((?x70 (ite (= 3 8) (ite $x29 213 212) ?x64)))
 (let ((?x76 (ite (= 3 9) (ite $x29 244 243) ?x70)))
 (let ((?x82 (ite (= 3 10) (ite $x29 274 273) ?x76)))
 (let ((?x88 (ite (= 3 11) (ite $x29 305 304) ?x82)))
 (let ((?x16 (- (+ (* 365 (- 2000 1)) (div (- 2000 1) 4)) (div (- 2000 1) 100))))
 (let ((?x95 (+ (+ ?x16 (div (- 2000 1) 400)) (ite (= 3 12) (ite $x29 335 334) ?x88))))
 (let ((?x97 (+ ?x95 (- 1 1))))
 (let ((?x1803 (+ (mod (+ (+ (* 12 x_year) (- x_month 1)) 13) 12) 1)))
 (let ((?x2171 (ite (or (= ?x1803 4) (= ?x1803 6) (= ?x1803 9) (= ?x1803 11)) 30 31)))
 (let ((?x2339 (* 12 x_year)))
 (let ((?x222 (+ ?x2339 (- x_month 1))))
 (let ((?x3075 (+ ?x222 13)))
 (let ((?x1950 (div ?x3075 12)))
 (let (($x1990 (ite (= (mod ?x1950 400) 0) true (ite (= (mod ?x1950 100) 0) false (= (mod ?x1950 4) 0)))))
 (let ((?x1023 (ite (= ?x1803 2) (ite $x1990 29 28) ?x2171)))
 (let ((?x2005 (ite (<= x_day ?x1023) x_day ?x1023)))
 (let (($x684 (= x_month 11)))
 (let (($x1263 (= x_month 9)))
 (let (($x791 (= x_month 6)))
 (let (($x721 (= x_month 4)))
 (let ((?x2607 (ite (or $x721 $x791 $x1263 $x684) 30 31)))
 (let (($x257 (= (mod x_year 4) 0)))
 (let (($x1207 (= (mod x_year 100) 0)))
 (let (($x2715 (= (mod x_year 400) 0)))
 (let (($x656 (ite $x2715 true (ite $x1207 false $x257))))
 (let (($x2319 (= x_month 2)))
 (let ((?x235 (ite $x2319 (ite $x656 29 28) ?x2607)))
 (let (($x2597 (= x_day ?x235)))
 (let ((?x3348 (ite false (ite $x2597 ?x1023 ?x2005) ?x2005)))
 (let (($x3341 (and (= (mod (+ ?x1950 (* (div 40 146097) 400)) 4) 0) (and (distinct (mod (+ ?x1950 (* (div 40 146097) 400)) 100) 0) true))))
 (let (($x3343 (or $x3341 (= (mod (+ ?x1950 (* (div 40 146097) 400)) 400) 0))))
 (let ((?x1131 (ite (= 2 ?x1803) (ite $x3343 31 31) (ite (= 1 ?x1803) (ite $x3343 0 0) 0))))
 (let ((?x3316 (ite (= 4 ?x1803) (ite $x3343 91 90) (ite (= 3 ?x1803) (ite $x3343 60 59) ?x1131))))
 (let ((?x3323 (ite (= 6 ?x1803) (ite $x3343 152 151) (ite (= 5 ?x1803) (ite $x3343 121 120) ?x3316))))
 (let ((?x3299 (ite (= 8 ?x1803) (ite $x3343 213 212) (ite (= 7 ?x1803) (ite $x3343 182 181) ?x3323))))
 (let ((?x3305 (ite (= 10 ?x1803) (ite $x3343 274 273) (ite (= 9 ?x1803) (ite $x3343 244 243) ?x3299))))
 (let ((?x3290 (ite (= 12 ?x1803) (ite $x3343 335 334) (ite (= 11 ?x1803) (ite $x3343 305 304) ?x3305))))
 (let ((?x3355 (+ (* 365 (- (+ ?x1950 (* (div 40 146097) 400)) 1)) (div (- (+ ?x1950 (* (div 40 146097) 400)) 1) 4))))
 (let ((?x2569 (+ (- ?x3355 (div (- (+ ?x1950 (* (div 40 146097) 400)) 1) 100)) (div (- (+ ?x1950 (* (div 40 146097) 400)) 1) 400))))
 (let ((?x3277 (+ (+ (- (+ (+ ?x2569 ?x3290) (- ?x3348 1)) ?x97) (mod 40 146097)) ?x97)))
 (let ((?x3283 (mod ?x3277 146097)))
 (let ((?x3269 (div ?x3283 36524)))
 (let ((?x3268 (ite (<= 4 ?x3269) 3 ?x3269)))
 (let ((?x2521 (- ?x3283 (* ?x3268 36524))))
 (let ((?x675 (mod ?x2521 1461)))
 (let ((?x2662 (div ?x675 365)))
 (let ((?x3259 (ite (<= 4 ?x2662) 3 ?x2662)))
 (let ((?x3266 (+ (+ (* (div ?x3277 146097) 400) (* ?x3268 100)) (* (div ?x2521 1461) 4))))
 (let ((?x1754 (+ (+ ?x3266 ?x3259) 1)))
 (let (($x3538 (or (and (= (mod ?x1754 4) 0) (and (distinct (mod ?x1754 100) 0) true)) (= (mod ?x1754 400) 0))))
 (let ((?x3239 (ite $x3538 31 31)))
 (let ((?x3261 (- ?x675 (* ?x3259 365))))
 (let (($x2413 (>= ?x3261 ?x3239)))
 (let ((?x3237 (ite $x3538 60 59)))
 (let (($x2427 (>= ?x3261 ?x3237)))
 (let ((?x3240 (ite $x3538 91 90)))
 (let (($x999 (>= ?x3261 ?x3240)))
 (let ((?x3241 (ite $x3538 121 120)))
 (let (($x3143 (>= ?x3261 ?x3241)))
 (let ((?x3144 (ite $x3143 5 (ite $x999 4 (ite $x2427 3 (ite $x2413 2 1))))))
 (let ((?x3242 (ite $x3538 152 151)))
 (let (($x3145 (>= ?x3261 ?x3242)))
 (let ((?x3243 (ite $x3538 182 181)))
 (let (($x1585 (>= ?x3261 ?x3243)))
 (let ((?x3150 (ite $x3538 213 212)))
 (let (($x3136 (>= ?x3261 ?x3150)))
 (let ((?x3537 (ite $x3538 244 243)))
 (let (($x1518 (>= ?x3261 ?x3537)))
 (let ((?x3534 (ite $x1518 9 (ite $x3136 8 (ite $x1585 7 (ite $x3145 6 ?x3144))))))
 (let ((?x3149 (ite $x3538 274 273)))
 (let (($x925 (>= ?x3261 ?x3149)))
 (let ((?x3536 (ite $x3538 305 304)))
 (let (($x2720 (>= ?x3261 ?x3536)))
 (let ((?x807 (ite $x3538 335 334)))
 (let (($x3202 (>= ?x3261 ?x807)))
 (let ((?x2679 (ite $x3202 12 (ite $x2720 11 (ite $x925 10 ?x3534)))))
 (let (($x2090 (= 0 40)))
 (= x_shift_period_25789_month (ite $x2090 ?x1803 ?x2679))))))))))))))))))))))))))))))))))))))))))))))))))))))))))))))))))))))))))))))))))))))))
(assert
 (let (($x29 (or (and (= (mod 2000 4) 0) (and (distinct (mod 2000 100) 0) true)) (= (mod 2000 400) 0))))
 (let ((?x36 (ite (= 3 2) (ite $x29 31 31) (ite (= 3 1) (ite $x29 0 0) 0))))
 (let ((?x40 (ite $x29 60 59)))
 (let ((?x41 (ite (= 3 3) ?x40 ?x36)))
 (let ((?x46 (ite (= 3 4) (ite $x29 91 90) ?x41)))
 (let ((?x52 (ite (= 3 5) (ite $x29 121 120) ?x46)))
 (let ((?x58 (ite (= 3 6) (ite $x29 152 151) ?x52)))
 (let ((?x64 (ite (= 3 7) (ite $x29 182 181) ?x58)))
 (let ((?x70 (ite (= 3 8) (ite $x29 213 212) ?x64)))
 (let ((?x76 (ite (= 3 9) (ite $x29 244 243) ?x70)))
 (let ((?x82 (ite (= 3 10) (ite $x29 274 273) ?x76)))
 (let ((?x88 (ite (= 3 11) (ite $x29 305 304) ?x82)))
 (let ((?x16 (- (+ (* 365 (- 2000 1)) (div (- 2000 1) 4)) (div (- 2000 1) 100))))
 (let ((?x95 (+ (+ ?x16 (div (- 2000 1) 400)) (ite (= 3 12) (ite $x29 335 334) ?x88))))
 (let ((?x97 (+ ?x95 (- 1 1))))
 (let ((?x1803 (+ (mod (+ (+ (* 12 x_year) (- x_month 1)) 13) 12) 1)))
 (let ((?x2171 (ite (or (= ?x1803 4) (= ?x1803 6) (= ?x1803 9) (= ?x1803 11)) 30 31)))
 (let ((?x2339 (* 12 x_year)))
 (let ((?x222 (+ ?x2339 (- x_month 1))))
 (let ((?x3075 (+ ?x222 13)))
 (let ((?x1950 (div ?x3075 12)))
 (let (($x1990 (ite (= (mod ?x1950 400) 0) true (ite (= (mod ?x1950 100) 0) false (= (mod ?x1950 4) 0)))))
 (let ((?x1023 (ite (= ?x1803 2) (ite $x1990 29 28) ?x2171)))
 (let ((?x2005 (ite (<= x_day ?x1023) x_day ?x1023)))
 (let (($x684 (= x_month 11)))
 (let (($x1263 (= x_month 9)))
 (let (($x791 (= x_month 6)))
 (let (($x721 (= x_month 4)))
 (let ((?x2607 (ite (or $x721 $x791 $x1263 $x684) 30 31)))
 (let (($x257 (= (mod x_year 4) 0)))
 (let (($x1207 (= (mod x_year 100) 0)))
 (let (($x2715 (= (mod x_year 400) 0)))
 (let (($x656 (ite $x2715 true (ite $x1207 false $x257))))
 (let (($x2319 (= x_month 2)))
 (let ((?x235 (ite $x2319 (ite $x656 29 28) ?x2607)))
 (let (($x2597 (= x_day ?x235)))
 (let ((?x3348 (ite false (ite $x2597 ?x1023 ?x2005) ?x2005)))
 (let (($x3341 (and (= (mod (+ ?x1950 (* (div 40 146097) 400)) 4) 0) (and (distinct (mod (+ ?x1950 (* (div 40 146097) 400)) 100) 0) true))))
 (let (($x3343 (or $x3341 (= (mod (+ ?x1950 (* (div 40 146097) 400)) 400) 0))))
 (let ((?x1131 (ite (= 2 ?x1803) (ite $x3343 31 31) (ite (= 1 ?x1803) (ite $x3343 0 0) 0))))
 (let ((?x3316 (ite (= 4 ?x1803) (ite $x3343 91 90) (ite (= 3 ?x1803) (ite $x3343 60 59) ?x1131))))
 (let ((?x3323 (ite (= 6 ?x1803) (ite $x3343 152 151) (ite (= 5 ?x1803) (ite $x3343 121 120) ?x3316))))
 (let ((?x3299 (ite (= 8 ?x1803) (ite $x3343 213 212) (ite (= 7 ?x1803) (ite $x3343 182 181) ?x3323))))
 (let ((?x3305 (ite (= 10 ?x1803) (ite $x3343 274 273) (ite (= 9 ?x1803) (ite $x3343 244 243) ?x3299))))
 (let ((?x3290 (ite (= 12 ?x1803) (ite $x3343 335 334) (ite (= 11 ?x1803) (ite $x3343 305 304) ?x3305))))
 (let ((?x3355 (+ (* 365 (- (+ ?x1950 (* (div 40 146097) 400)) 1)) (div (- (+ ?x1950 (* (div 40 146097) 400)) 1) 4))))
 (let ((?x2569 (+ (- ?x3355 (div (- (+ ?x1950 (* (div 40 146097) 400)) 1) 100)) (div (- (+ ?x1950 (* (div 40 146097) 400)) 1) 400))))
 (let ((?x3277 (+ (+ (- (+ (+ ?x2569 ?x3290) (- ?x3348 1)) ?x97) (mod 40 146097)) ?x97)))
 (let ((?x3283 (mod ?x3277 146097)))
 (let ((?x3269 (div ?x3283 36524)))
 (let ((?x3268 (ite (<= 4 ?x3269) 3 ?x3269)))
 (let ((?x2521 (- ?x3283 (* ?x3268 36524))))
 (let ((?x675 (mod ?x2521 1461)))
 (let ((?x2662 (div ?x675 365)))
 (let ((?x3259 (ite (<= 4 ?x2662) 3 ?x2662)))
 (let ((?x3266 (+ (+ (* (div ?x3277 146097) 400) (* ?x3268 100)) (* (div ?x2521 1461) 4))))
 (let ((?x1754 (+ (+ ?x3266 ?x3259) 1)))
 (let (($x3538 (or (and (= (mod ?x1754 4) 0) (and (distinct (mod ?x1754 100) 0) true)) (= (mod ?x1754 400) 0))))
 (let ((?x3261 (- ?x675 (* ?x3259 365))))
 (let ((?x3239 (ite $x3538 31 31)))
 (let (($x2413 (>= ?x3261 ?x3239)))
 (let ((?x3532 (ite $x2413 (+ (- ?x3261 ?x3239) 1) (+ (- ?x3261 (ite $x3538 0 0)) 1))))
 (let ((?x3237 (ite $x3538 60 59)))
 (let (($x2427 (>= ?x3261 ?x3237)))
 (let ((?x3240 (ite $x3538 91 90)))
 (let (($x999 (>= ?x3261 ?x3240)))
 (let ((?x1093 (ite $x999 (+ (- ?x3261 ?x3240) 1) (ite $x2427 (+ (- ?x3261 ?x3237) 1) ?x3532))))
 (let ((?x3241 (ite $x3538 121 120)))
 (let (($x3143 (>= ?x3261 ?x3241)))
 (let ((?x3242 (ite $x3538 152 151)))
 (let (($x3145 (>= ?x3261 ?x3242)))
 (let ((?x2736 (ite $x3145 (+ (- ?x3261 ?x3242) 1) (ite $x3143 (+ (- ?x3261 ?x3241) 1) ?x1093))))
 (let ((?x3243 (ite $x3538 182 181)))
 (let (($x1585 (>= ?x3261 ?x3243)))
 (let ((?x3150 (ite $x3538 213 212)))
 (let (($x3136 (>= ?x3261 ?x3150)))
 (let ((?x1519 (ite $x3136 (+ (- ?x3261 ?x3150) 1) (ite $x1585 (+ (- ?x3261 ?x3243) 1) ?x2736))))
 (let ((?x3537 (ite $x3538 244 243)))
 (let (($x1518 (>= ?x3261 ?x3537)))
 (let ((?x3149 (ite $x3538 274 273)))
 (let (($x925 (>= ?x3261 ?x3149)))
 (let ((?x1166 (ite $x925 (+ (- ?x3261 ?x3149) 1) (ite $x1518 (+ (- ?x3261 ?x3537) 1) ?x1519))))
 (let ((?x3536 (ite $x3538 305 304)))
 (let (($x2720 (>= ?x3261 ?x3536)))
 (let ((?x807 (ite $x3538 335 334)))
 (let (($x3202 (>= ?x3261 ?x807)))
 (let ((?x3529 (ite $x3202 (+ (- ?x3261 ?x807) 1) (ite $x2720 (+ (- ?x3261 ?x3536) 1) ?x1166))))
 (let (($x2090 (= 0 40)))
 (= x_shift_period_25789_day (ite $x2090 ?x3348 ?x3529)))))))))))))))))))))))))))))))))))))))))))))))))))))))))))))))))))))))))))))))))))))))))))
(assert
 (= y_epoch x_shift_period_25789_epoch))
(assert
 (not (= y_epoch 8395)))
(check-sat)
